
c turning on binary mode checking

c parsing input formula with 13 variables and 312 clauses

c finished parsing, read 347 bytes from proof file

c detected empty clause; start verification via backward checking

c 93 of 312 clauses in core                            

c 46 of 52 lemmas in core using 345 resolution steps

c 0 RAT lemmas in core; 2 redundant literals in core lemmas

s VERIFIED

c verification time: 0.075 seconds
